# opt freq b3lyp/6-311g** scrf(solvent=CCl4)

Title Card Required

0 1
 C                 -2.27637492    0.24609675    0.05216149
 H                 -1.94212765   -0.75842392   -0.10313499
 H                 -1.99306421    0.56876726    1.03222209
 H                 -3.34141385    0.28627650   -0.04258899
 C                 -1.63233690    1.16962236   -0.99851233
 O                 -2.32507581    2.33884283   -1.44341266
 C                 -0.24227238    0.83398746   -1.57006272
 H                  0.40362917    0.52111430   -0.77644974
 H                 -0.33266435    0.04584819   -2.28809181
 H                  0.16804169    1.70179917   -2.04276264

